c User generated cnf file
p cnf 10 22
6 10 -1 0 
4 3 -10 0 
1 2 -2 0 
3 4 -6 0 
8 10 -3 0 
4 8 -9 0 
6 1 -1 0 
4 5 -2 0 
1 3 -6 0 
1 -8 5 0 
6 4 -9 0 
7 2 -8 0 
9 8 -5 0 
5 5 -9 0 
7 -2 7 0 
6 6 -3 0 
3 6 -3 0 
1 -10 7 0 
8 -1 9 0 
3 -9 9 0 
6 -4 2 0 
3 5 -2 0 
